% Generated FlatZinc statistics:
%%%mzn-stat: paths=0
%%%mzn-stat: flatBoolVars=1868
%%%mzn-stat: flatIntVars=180
%%%mzn-stat: flatBoolConstraints=590
%%%mzn-stat: flatIntConstraints=2020
%%%mzn-stat: evaluatedReifiedConstraints=104
%%%mzn-stat: evaluatedHalfReifiedConstraints=1764
%%%mzn-stat: method="minimize"
%%%mzn-stat: flatTime=0.106518
%%%mzn-stat-end
end = 155
carga_por_operario = [155, 0, 0]
desbalance = 155
Job 1:   8(op:1)   9(op:1)  64(op:1) 104(op:1) 143(op:1)
Job 2:  50(op:1)  85(op:1)  96(op:1) 127(op:1) 128(op:1)
Job 3:  29(op:1)  43(op:1)  86(op:1) 110(op:1) 154(op:1)
Job 4:   0(op:1)  39(op:1)  71(op:1)  98(op:1) 138(op:1)
Job 5:  32(op:1)  78(op:1) 118(op:1) 142(op:1) 146(op:1)
Job 6:  22(op:1)  76(op:1)  83(op:1)  88(op:1) 149(op:1)
Job 7:  16(op:1)  56(op:1) 123(op:1) 135(op:1) 152(op:1)
----------
%%%mzn-stat: initTime=0.00905848
%%%mzn-stat: solveTime=59.8932
%%%mzn-stat: solutions=1
%%%mzn-stat: variables=2050
%%%mzn-stat: propagators=2610
%%%mzn-stat: propagations=958498638
%%%mzn-stat: nodes=8666460
%%%mzn-stat: failures=4333197
%%%mzn-stat: restarts=0
%%%mzn-stat: peakDepth=84
%%%mzn-stat-end
%%%mzn-stat: nSolutions=1
%%%mzn-stat-end
